\ Model facility relax lagrangian cfl
\ LP format - for model browsing. Use MPS format to capture full model detail.
Minimize
  1.680868e+06 X[0] + 1.784457e+06 X[1] + 1.114238e+06 X[2] + 877659 X[3]
   + 1.085608e+06 X[4] + 973119 X[5] + 192711 Y[0,0] + 478399 Y[0,1]
   + 50424 Y[0,2] + 250729 Y[0,3] + 14651 Y[0,4] + 362120 Y[1,0]
   + 403097 Y[1,1] + 349112 Y[1,2] + 347577 Y[1,3] + 430933 Y[1,4]
   + 14507 Y[2,0] + 337246 Y[2,1] + 277761 Y[2,2] + 314798 Y[2,3]
   + 301212 Y[2,4] + 130414 Y[3,0] + 265168 Y[3,1] + 61669 Y[3,2]
   + 157173 Y[3,3] + 441895 Y[3,4] + 200982 Y[4,0] + 376099 Y[4,1]
   + 101503 Y[4,2] + 335016 Y[4,3] + 298827 Y[4,4] + 102242 Y[5,0]
   + 159716 Y[5,1] + 36873 Y[5,2] + 234775 Y[5,3] + 435240 Y[5,4]
Subject To
 Demand[0]: Y[0,0] + Y[1,0] + Y[2,0] + Y[3,0] + Y[4,0] + Y[5,0] = 1
 Demand[1]: Y[0,1] + Y[1,1] + Y[2,1] + Y[3,1] + Y[4,1] + Y[5,1] = 1
 Demand[2]: Y[0,2] + Y[1,2] + Y[2,2] + Y[3,2] + Y[4,2] + Y[5,2] = 1
 Demand[3]: Y[0,3] + Y[1,3] + Y[2,3] + Y[3,3] + Y[4,3] + Y[5,3] = 1
 Demand[4]: Y[0,4] + Y[1,4] + Y[2,4] + Y[3,4] + Y[4,4] + Y[5,4] = 1
Bounds
Binaries
 X[0] X[1] X[2] X[3] X[4] X[5] Y[0,0] Y[0,1] Y[0,2] Y[0,3] Y[0,4] Y[1,0]
 Y[1,1] Y[1,2] Y[1,3] Y[1,4] Y[2,0] Y[2,1] Y[2,2] Y[2,3] Y[2,4] Y[3,0]
 Y[3,1] Y[3,2] Y[3,3] Y[3,4] Y[4,0] Y[4,1] Y[4,2] Y[4,3] Y[4,4] Y[5,0]
 Y[5,1] Y[5,2] Y[5,3] Y[5,4]
End
